NAME: cum140.tsp
TYPE: TSP
COMMENT: User-generated TSP file
DIMENSION: 140
EDGE_WEIGHT_TYPE: EUC_2D
NODE_COORD_SECTION
1 53.0 42.0
2 20.0 81.0
3 10.0 75.0
4 74.0 25.0
5 90.0 83.0
6 68.0 15.0
7 33.0 4.0
8 64.0 76.0
9 43.0 21.0
10 50.0 23.0
11 50.0 85.0
12 56.0 37.0
13 55.0 6.0
14 91.0 55.0
15 55.0 48.0
16 18.0 55.0
17 35.0 72.0
18 97.0 12.0
19 61.0 14.0
20 14.0 14.0
21 74.0 46.0
22 49.0 36.0
23 99.0 58.0
24 5.0 20.0
25 8.0 21.0
26 60.0 40.0
27 67.0 78.0
28 8.0 83.0
29 15.0 58.0
30 40.0 10.0
31 14.0 50.0
32 21.0 82.0
33 56.0 17.0
34 39.0 86.0
35 13.0 24.0
36 91.0 37.0
37 48.0 61.0
38 18.0 98.0
39 60.0 51.0
40 39.0 100.0
41 3.0 86.0
42 20.0 65.0
43 20.0 67.0
44 95.0 6.0
45 26.0 38.0
46 9.0 23.0
47 96.0 64.0
48 57.0 13.0
49 27.0 94.0
50 57.0 70.0
51 83.0 11.0
52 11.0 38.0
53 88.0 97.0
54 75.0 86.0
55 29.0 30.0
56 18.0 6.0
57 33.0 71.0
58 54.0 67.0
59 25.0 56.0
60 46.0 39.0
61 41.0 51.0
62 98.0 93.0
63 53.0 14.0
64 95.0 32.0
65 82.0 48.0
66 37.0 94.0
67 47.0 81.0
68 50.0 89.0
69 16.0 86.0
70 74.0 2.0
71 82.0 90.0
72 8.0 2.0
73 86.0 56.0
74 6.0 64.0
75 22.0 49.0
76 43.0 98.0
77 37.0 32.0
78 86.0 91.0
79 80.0 19.0
80 92.0 85.0
81 27.0 49.0
82 93.0 5.0
83 77.0 13.0
84 27.0 40.0
85 64.0 84.0
86 38.0 61.0
87 87.0 5.0
88 45.0 11.0
89 67.0 44.0
90 49.0 80.0
91 7.0 89.0
92 68.0 75.0
93 95.0 3.0
94 88.0 36.0
95 92.0 65.0
96 82.0 61.0
97 21.0 23.0
98 6.0 96.0
99 14.0 76.0
100 60.0 8.0
101 89.0 49.0
102 76.0 62.0
103 39.0 57.0
104 25.0 15.0
105 64.0 34.0
106 99.0 73.0
107 41.0 85.0
108 52.0 42.0
109 25.0 47.0
110 97.0 33.0
111 3.0 43.0
112 85.0 98.0
113 16.0 74.0
114 51.0 66.0
115 6.0 98.0
116 6.0 61.0
117 84.0 18.0
118 11.0 61.0
119 43.0 23.0
120 68.0 54.0
121 100.0 50.0
122 50.0 37.0
123 71.0 63.0
124 8.0 71.0
125 100.0 92.0
126 21.0 85.0
127 88.0 9.0
128 50.0 87.0
129 34.0 20.0
130 21.0 75.0
131 81.0 58.0
132 48.0 62.0
133 49.0 89.0
134 94.0 83.0
135 38.0 13.0
136 30.0 28.0
137 35.0 78.0
138 72.0 36.0
139 4.0 97.0
140 91.0 68.0
EOF

